c "258795.clq"
p edge 150 584
e 1 5
e 1 6
e 1 7
e 1 10
e 1 12
e 1 14
e 1 22
e 1 24
e 1 109
e 2 5
e 2 8
e 2 10
e 2 17
e 2 28
e 2 37
e 2 47
e 2 63
e 2 87
e 2 106
e 2 114
e 2 118
e 2 130
e 2 132
e 3 5
e 3 6
e 3 9
e 3 14
e 3 17
e 3 20
e 3 21
e 3 33
e 3 34
e 3 54
e 3 65
e 3 69
e 3 77
e 3 81
e 3 82
e 3 83
e 3 85
e 3 88
e 3 91
e 3 104
e 3 107
e 3 120
e 3 135
e 3 138
e 3 140
e 4 5
e 4 6
e 4 7
e 4 11
e 4 13
e 4 15
e 4 21
e 4 28
e 4 30
e 4 36
e 4 48
e 4 50
e 4 58
e 4 60
e 4 62
e 4 69
e 4 79
e 4 82
e 4 92
e 4 98
e 4 112
e 4 127
e 4 128
e 4 146
e 5 6
e 5 7
e 5 8
e 5 10
e 5 20
e 5 24
e 5 27
e 5 34
e 5 36
e 5 38
e 5 39
e 5 45
e 5 56
e 5 60
e 5 61
e 5 67
e 5 70
e 5 71
e 5 80
e 5 97
e 5 135
e 6 7
e 6 8
e 6 9
e 6 11
e 6 12
e 6 13
e 6 14
e 6 15
e 6 16
e 6 18
e 6 21
e 6 22
e 6 23
e 6 24
e 6 26
e 6 27
e 6 29
e 6 32
e 6 34
e 6 35
e 6 41
e 6 45
e 6 47
e 6 50
e 6 52
e 6 63
e 6 64
e 6 65
e 6 71
e 6 74
e 6 76
e 6 85
e 6 94
e 6 96
e 6 98
e 6 100
e 6 103
e 6 107
e 6 110
e 6 116
e 6 123
e 6 124
e 6 125
e 6 131
e 7 8
e 7 9
e 7 10
e 7 11
e 7 16
e 7 17
e 7 18
e 7 23
e 7 29
e 7 41
e 7 52
e 7 56
e 7 68
e 7 78
e 7 86
e 7 88
e 7 104
e 7 129
e 7 136
e 7 150
e 8 9
e 8 11
e 8 12
e 8 13
e 8 14
e 8 15
e 8 19
e 8 52
e 8 67
e 8 84
e 8 88
e 8 97
e 8 98
e 8 108
e 8 114
e 8 128
e 9 15
e 9 25
e 9 43
e 9 63
e 9 66
e 9 80
e 9 81
e 9 103
e 10 19
e 10 20
e 10 22
e 10 25
e 10 26
e 10 30
e 10 31
e 10 42
e 10 73
e 10 103
e 10 122
e 10 123
e 10 128
e 10 140
e 10 143
e 11 12
e 11 23
e 11 30
e 11 32
e 11 33
e 11 36
e 11 38
e 11 40
e 11 46
e 11 57
e 11 61
e 11 68
e 11 72
e 11 86
e 11 90
e 11 102
e 11 131
e 12 13
e 12 16
e 12 18
e 12 19
e 12 20
e 12 22
e 12 23
e 12 25
e 12 28
e 12 32
e 12 41
e 12 45
e 12 46
e 12 50
e 12 53
e 12 54
e 12 59
e 12 62
e 12 64
e 12 65
e 12 67
e 12 70
e 12 76
e 12 78
e 12 83
e 12 87
e 12 93
e 12 102
e 12 104
e 12 108
e 12 109
e 12 111
e 12 112
e 12 116
e 12 121
e 12 127
e 12 132
e 12 133
e 12 135
e 12 136
e 12 141
e 13 16
e 13 17
e 13 25
e 13 31
e 13 40
e 13 43
e 13 49
e 13 59
e 13 66
e 13 84
e 13 87
e 13 91
e 13 114
e 13 118
e 13 127
e 14 66
e 14 73
e 14 82
e 14 112
e 14 134
e 14 136
e 15 19
e 15 21
e 15 26
e 15 31
e 15 96
e 16 18
e 16 37
e 16 78
e 16 80
e 16 90
e 16 105
e 17 24
e 17 30
e 17 39
e 17 45
e 17 46
e 17 48
e 17 74
e 17 75
e 17 115
e 17 133
e 18 27
e 18 51
e 18 70
e 18 75
e 18 77
e 18 89
e 18 100
e 18 122
e 19 26
e 19 42
e 19 50
e 19 54
e 19 84
e 19 144
e 20 29
e 20 35
e 20 53
e 20 57
e 20 109
e 20 124
e 20 137
e 21 42
e 21 47
e 21 57
e 21 106
e 21 108
e 22 31
e 22 35
e 22 38
e 22 39
e 22 41
e 22 59
e 22 94
e 22 97
e 22 99
e 22 119
e 22 134
e 22 141
e 22 144
e 22 150
e 23 27
e 23 36
e 23 37
e 23 44
e 23 98
e 23 125
e 24 42
e 24 55
e 24 119
e 25 28
e 25 29
e 25 34
e 25 56
e 25 58
e 25 65
e 25 89
e 25 99
e 25 102
e 25 122
e 25 133
e 25 140
e 25 150
e 26 32
e 26 33
e 26 75
e 26 77
e 26 79
e 26 87
e 26 89
e 26 103
e 26 124
e 26 125
e 26 131
e 26 141
e 27 39
e 27 52
e 27 56
e 28 33
e 28 35
e 28 44
e 28 51
e 28 55
e 28 58
e 28 59
e 28 69
e 28 85
e 28 91
e 28 100
e 28 106
e 28 111
e 28 116
e 28 120
e 29 72
e 29 129
e 29 132
e 30 93
e 30 95
e 32 49
e 32 53
e 32 61
e 32 62
e 32 67
e 32 73
e 32 83
e 32 92
e 32 110
e 32 111
e 32 117
e 32 138
e 33 58
e 33 127
e 34 37
e 34 40
e 34 43
e 34 57
e 34 81
e 34 85
e 34 94
e 35 44
e 35 77
e 35 90
e 35 95
e 36 48
e 36 49
e 36 54
e 36 79
e 36 82
e 36 99
e 36 149
e 37 38
e 37 46
e 37 48
e 37 51
e 37 55
e 37 71
e 37 97
e 37 99
e 37 100
e 37 129
e 37 139
e 38 43
e 38 53
e 38 64
e 38 101
e 39 40
e 39 76
e 41 44
e 41 51
e 41 60
e 41 144
e 42 62
e 43 49
e 43 55
e 43 106
e 43 132
e 43 142
e 43 150
e 44 47
e 44 64
e 44 88
e 44 110
e 44 113
e 45 63
e 45 72
e 45 119
e 45 138
e 45 147
e 45 148
e 46 107
e 47 69
e 47 81
e 47 84
e 47 134
e 47 143
e 47 148
e 48 60
e 48 137
e 51 108
e 52 68
e 53 91
e 54 61
e 55 73
e 55 80
e 55 136
e 56 102
e 57 70
e 58 72
e 59 78
e 59 107
e 59 126
e 59 133
e 59 149
e 60 92
e 60 109
e 60 130
e 61 101
e 61 131
e 62 74
e 62 147
e 63 93
e 63 94
e 63 111
e 64 74
e 64 123
e 65 66
e 65 95
e 65 116
e 65 135
e 65 148
e 66 68
e 66 89
e 66 96
e 66 113
e 67 71
e 67 113
e 67 120
e 70 114
e 70 117
e 70 121
e 71 75
e 71 76
e 71 138
e 72 90
e 72 104
e 72 118
e 72 149
e 73 95
e 73 105
e 74 139
e 76 79
e 76 105
e 77 146
e 78 92
e 78 115
e 80 115
e 81 83
e 81 105
e 81 122
e 81 146
e 82 137
e 83 86
e 83 93
e 83 121
e 83 123
e 83 137
e 83 143
e 83 145
e 84 110
e 84 113
e 85 86
e 87 139
e 88 101
e 88 118
e 95 96
e 95 101
e 96 142
e 97 112
e 99 142
e 100 128
e 101 140
e 101 142
e 102 125
e 103 117
e 106 126
e 106 145
e 108 115
e 108 120
e 108 147
e 109 119
e 111 129
e 112 124
e 112 145
e 112 149
e 114 126
e 115 134
e 116 117
e 116 130
e 116 145
e 117 126
e 119 121
e 119 139
e 125 146
e 127 143
e 127 148
e 128 130
e 128 144
e 136 147
e 139 141
